# Objective value = 53
WA1n 0
WA1p 0
WA2n 1
WA2p 0
WB1n 0
WB1p 0
WB2n 1
WB2p 0
WC1n 0
WC1p 0
WC2n 1
WC2p 0
WD1n 1
WD1p 0
WE1n 1
WE1p 0
WF1n 2
WF1p 0
WG1n 2
WG1p 0
WH1n 4
WH1p 0
WI1n 4
WI1p 0
WJ1n 8
WJ1p 0
WK1n 8
WK1p 0
WT1n 15
WT1p 0
WT2n 1
WT2p 0
100 115
a 1
b 1
c 1
d 1
e 1
f 1
g 1
h 1
i 1
j 1
k 1
l 1
m 1
n 1
o 1
p 1
